CMPL model generation - running

CMPL version: 1.11.0
Authors: Thomas Schleiff, Mike Steglich
Distributed under the GPLv3 

create model instance ...
write model instance ...
CMPL model generation - finished

Solver - running


Welcome to IBM(R) ILOG(R) CPLEX(R) Interactive Optimizer 12.7.1.0
  with Simplex, Mixed Integer & Barrier Optimizers
5725-A06 5725-A29 5724-Y48 5724-Y49 5724-Y54 5724-Y55 5655-Y21
Copyright IBM Corp. 1988, 2017.  All Rights Reserved.

Type 'help' for a list of available commands.
Type 'help' followed by a command name for more
information on commands.

CPLEX> Specified objective sense: MINIMIZE
Selected objective  name:  line[1]
Selected RHS        name:  RHS
Selected bound      name:  BOUND
Problem '/tmp/cmpl.T23675.mps' read.
Read time = 0.09 sec. (8.17 ticks)
CPLEX> CPXPARAM_Read_APIEncoding                        "UTF-8"
Tried aggregator 3 times.
MIP Presolve eliminated 19282 rows and 30788 columns.
MIP Presolve modified 340 coefficients.
Aggregator did 598 substitutions.
Reduced MIP has 2475 rows, 3207 columns, and 9367 nonzeros.
Reduced MIP has 3039 binaries, 0 generals, 0 SOSs, and 0 indicators.
Presolve time = 0.06 sec. (41.71 ticks)
Found incumbent of value 472.253315 after 0.10 sec. (63.75 ticks)
Probing fixed 5 vars, tightened 0 bounds.
Probing time = 0.01 sec. (4.13 ticks)
Tried aggregator 1 time.
MIP Presolve eliminated 0 rows and 5 columns.
MIP Presolve modified 19 coefficients.
Reduced MIP has 2475 rows, 3202 columns, and 9357 nonzeros.
Reduced MIP has 3202 binaries, 0 generals, 0 SOSs, and 0 indicators.
Presolve time = 0.01 sec. (7.94 ticks)
Probing time = 0.01 sec. (2.66 ticks)
Clique table members: 5768.
MIP emphasis: balance optimality and feasibility.
MIP search method: dynamic search.
Parallel mode: none, using 1 thread.
Root relaxation solution time = 0.00 sec. (4.30 ticks)

        Nodes                                         Cuts/
   Node  Left     Objective  IInf  Best Integer    Best Bound    ItCnt     Gap

*     0+    0                          472.2533      -46.4652           109.84%
      0     0       63.2449    20      472.2533       63.2449       79   86.61%
*     0+    0                           97.0536       63.2449            34.84%
*     0+    0                           63.8163       63.2449             0.90%
      0     0       63.7297     1       63.8163      Cuts: 12       85    0.14%
*     0+    0                           63.7579       63.7297             0.04%
      0     0        cutoff             63.7579                     85    0.00%
Elapsed time = 0.16 sec. (106.16 ticks, tree = 0.01 MB, solutions = 4)

Cover cuts applied:  8
Gomory fractional cuts applied:  4

Root node processing (before b&c):
  Real time             =    0.16 sec. (107.88 ticks)
Sequential b&c:
  Real time             =    0.00 sec. (0.00 ticks)
                          ------------
Total (root+branch&cut) =    0.16 sec. (107.88 ticks)

Solution pool: 4 solutions saved.

MIP - Integer optimal solution:  Objective =  6.3757936000e+01
Solution time =    0.16 sec.  Iterations = 85  Nodes = 0
Deterministic time = 107.97 ticks  (670.17 ticks/sec)

CPLEX> Incumbent solution written to file '/tmp/cmpl.T23675.gsol'.
CPLEX> 
CMPL: Time used for model generation: 1 seconds
CMPL: Time used for solving the model: 1 seconds


Solution written to ASCII file: results/output_generated_conf_0.2/2016-03-07-4/fair-nonlinear.sol

Solver - finished
